c uprop, v00.0, 
c reading from data/prog670.c.cnf
c done reading: 0.004016
p cnf 145 664
-64 -75 0
64 75 0
-55 -70 0
55 70 0
-65 -66 0
65 66 0
-58 -61 0
58 61 0
-56 -68 0
56 68 0
-53 -59 0
53 59 0
-72 -78 0
72 78 0
75 -79 0
-75 79 0
-75 -80 0
75 80 0
-70 -75 81 0
-70 -79 81 0
-75 -79 81 0
70 75 -81 0
70 79 -81 0
75 79 -81 0
70 -81 -82 0
75 -81 -82 0
79 -81 -82 0
-70 81 82 0
-75 81 82 0
-79 81 82 0
-70 -75 -79 82 0
70 75 79 -82 0
-66 -70 83 0
-66 -81 83 0
-70 -81 83 0
66 70 -83 0
66 81 -83 0
70 81 -83 0
66 -83 -84 0
70 -83 -84 0
81 -83 -84 0
-66 83 84 0
-70 83 84 0
-81 83 84 0
-66 -70 -81 84 0
66 70 81 -84 0
-61 -66 85 0
-61 -83 85 0
-66 -83 85 0
61 66 -85 0
61 83 -85 0
66 83 -85 0
61 -85 -86 0
66 -85 -86 0
83 -85 -86 0
-61 85 86 0
-66 85 86 0
-83 85 86 0
-61 -66 -83 86 0
61 66 83 -86 0
-56 -61 87 0
-56 -85 87 0
-61 -85 87 0
56 61 -87 0
56 85 -87 0
61 85 -87 0
56 -87 -88 0
61 -87 -88 0
85 -87 -88 0
-56 87 88 0
-61 87 88 0
-85 87 88 0
-56 -61 -85 88 0
56 61 85 -88 0
-53 -56 89 0
-53 -87 89 0
-56 -87 89 0
53 56 -89 0
53 87 -89 0
56 87 -89 0
53 -89 -90 0
56 -89 -90 0
87 -89 -90 0
-53 89 90 0
-56 89 90 0
-87 89 90 0
-53 -56 -87 90 0
53 56 87 -90 0
-53 -72 91 0
-72 -89 91 0
-53 -89 91 0
53 72 -91 0
72 89 -91 0
53 89 -91 0
72 -77 -91 0
53 -77 -91 0
-77 89 -91 0
-72 77 91 0
-53 77 91 0
77 -89 91 0
-53 -72 77 -89 0
53 72 -77 89 0
72 -74 0
-74 91 0
-72 74 -91 0
-69 -72 -91 0
-69 72 91 0
69 -72 91 0
69 72 -91 0
-60 -80 0
60 80 0
-52 -82 0
52 82 0
-51 -84 0
51 84 0
-48 -86 0
48 86 0
-45 -88 0
45 88 0
-42 -90 0
42 90 0
-39 -77 0
39 77 0
-38 -69 0
38 69 0
-37 -74 0
37 74 0
-36 -49 0
-34 -36 0
34 36 49 0
-33 34 49 0
-33 -34 -49 0
33 34 -49 0
33 -34 49 0
-32 36 0
-32 -46 0
32 -36 46 0
-31 -36 46 0
-31 36 -46 0
31 36 46 0
31 -36 -46 0
-30 32 0
-28 -30 0
28 30 -32 0
-27 28 -32 0
-27 -28 32 0
27 28 32 0
27 -28 -32 0
-26 30 0
-26 -43 0
26 -30 43 0
-25 -30 43 0
-25 30 -43 0
25 30 43 0
25 -30 -43 0
-24 26 0
-22 -24 0
22 24 -26 0
-21 22 -26 0
-21 -22 26 0
21 22 26 0
21 -22 -26 0
-20 24 0
-20 -40 0
20 -24 40 0
-19 -24 40 0
-19 24 -40 0
19 24 40 0
19 -24 -40 0
20 -63 0
-63 -92 0
-20 63 92 0
-20 92 -94 0
20 -92 -94 0
20 92 94 0
-20 -92 94 0
46 -95 0
49 -95 0
-46 -49 95 0
-46 -49 -96 0
46 49 -96 0
-46 49 96 0
46 -49 96 0
-28 -34 97 0
-28 -95 97 0
-34 -95 97 0
28 34 -97 0
28 95 -97 0
34 95 -97 0
28 -97 -98 0
34 -97 -98 0
95 -97 -98 0
-28 97 98 0
-34 97 98 0
-95 97 98 0
-28 -34 -95 98 0
28 34 95 -98 0
-43 -46 99 0
-43 -97 99 0
-46 -97 99 0
43 46 -99 0
43 97 -99 0
46 97 -99 0
43 -99 -100 0
46 -99 -100 0
97 -99 -100 0
-43 99 100 0
-46 99 100 0
-97 99 100 0
-43 -46 -97 100 0
43 46 97 -100 0
-22 -28 101 0
-22 -99 101 0
-28 -99 101 0
22 28 -101 0
22 99 -101 0
28 99 -101 0
22 -101 -102 0
28 -101 -102 0
99 -101 -102 0
-22 101 102 0
-28 101 102 0
-99 101 102 0
-22 -28 -99 102 0
22 28 99 -102 0
-40 -43 103 0
-40 -101 103 0
-43 -101 103 0
40 43 -103 0
40 101 -103 0
43 101 -103 0
40 -103 -104 0
43 -103 -104 0
101 -103 -104 0
-40 103 104 0
-43 103 104 0
-101 103 104 0
-40 -43 -101 104 0
40 43 101 -104 0
-22 -92 105 0
-92 -103 105 0
-22 -103 105 0
22 92 -105 0
92 103 -105 0
22 103 -105 0
92 -105 -106 0
22 -105 -106 0
103 -105 -106 0
-92 105 106 0
-22 105 106 0
-103 105 106 0
-22 -92 -103 106 0
22 92 103 -106 0
40 -107 0
105 -107 0
-40 -105 107 0
-40 -105 -108 0
40 105 -108 0
-40 105 108 0
40 -105 108 0
92 -109 0
107 -109 0
-92 -107 109 0
-92 -107 -110 0
92 107 -110 0
-92 107 110 0
92 -107 110 0
98 -111 0
49 -111 0
-49 -98 111 0
-49 -98 -112 0
49 98 -112 0
49 -98 112 0
-49 98 112 0
-34 -100 113 0
-100 -111 113 0
-34 -111 113 0
34 100 -113 0
100 111 -113 0
34 111 -113 0
100 -113 -114 0
34 -113 -114 0
111 -113 -114 0
-100 113 114 0
-34 113 114 0
-111 113 114 0
-34 -100 -111 114 0
34 100 111 -114 0
-46 -102 115 0
-102 -113 115 0
-46 -113 115 0
46 102 -115 0
102 113 -115 0
46 113 -115 0
102 -115 -116 0
46 -115 -116 0
113 -115 -116 0
-102 115 116 0
-46 115 116 0
-113 115 116 0
-46 -102 -113 116 0
46 102 113 -116 0
-28 -104 117 0
-104 -115 117 0
-28 -115 117 0
28 104 -117 0
104 115 -117 0
28 115 -117 0
104 -117 -118 0
28 -117 -118 0
115 -117 -118 0
-104 117 118 0
-28 117 118 0
-115 117 118 0
-28 -104 -115 118 0
28 104 115 -118 0
-43 -106 119 0
-106 -117 119 0
-43 -117 119 0
43 106 -119 0
106 117 -119 0
43 117 -119 0
106 -119 -120 0
43 -119 -120 0
117 -119 -120 0
-106 119 120 0
-43 119 120 0
-117 119 120 0
-43 -106 -117 120 0
43 106 117 -120 0
-22 -108 121 0
-108 -119 121 0
-22 -119 121 0
22 108 -121 0
108 119 -121 0
22 119 -121 0
108 -121 -122 0
22 -121 -122 0
119 -121 -122 0
-108 121 122 0
-22 121 122 0
-119 121 122 0
-22 -108 -119 122 0
22 108 119 -122 0
-40 -110 123 0
-110 -121 123 0
-40 -121 123 0
40 110 -123 0
110 121 -123 0
40 121 -123 0
110 -123 -124 0
40 -123 -124 0
121 -123 -124 0
-110 123 124 0
-40 123 124 0
-121 123 124 0
-40 -110 -121 124 0
40 110 121 -124 0
-92 -109 125 0
-109 -123 125 0
-92 -123 125 0
92 109 -125 0
109 123 -125 0
92 123 -125 0
109 -125 -126 0
92 -125 -126 0
123 -125 -126 0
-109 125 126 0
-92 125 126 0
-123 125 126 0
-92 -109 -123 126 0
92 109 123 -126 0
114 -127 0
49 -127 0
-49 -114 127 0
-49 -114 -128 0
49 114 -128 0
49 -114 128 0
-49 114 128 0
-34 76 -116 0
76 -116 -127 0
-34 76 -127 0
34 -76 116 0
-76 116 127 0
34 -76 127 0
-71 -76 116 0
34 -71 -76 0
-71 -76 127 0
71 76 -116 0
-34 71 76 0
71 76 -127 0
-34 71 -116 -127 0
34 -71 116 127 0
-46 67 -118 0
67 -76 -118 0
-46 67 -76 0
46 -67 118 0
-67 76 118 0
46 -67 76 0
-62 -67 118 0
46 -62 -67 0
-62 -67 76 0
62 67 -118 0
-46 62 67 0
62 67 -76 0
-46 62 -76 -118 0
46 -62 76 118 0
-28 57 -120 0
57 -67 -120 0
-28 57 -67 0
28 -57 120 0
-57 67 120 0
28 -57 67 0
-54 -57 120 0
28 -54 -57 0
-54 -57 67 0
54 57 -120 0
-28 54 57 0
54 57 -67 0
-28 54 -67 -120 0
28 -54 67 120 0
-43 73 -122 0
-57 73 -122 0
-43 -57 73 0
43 -73 122 0
57 -73 122 0
43 57 -73 0
-50 -73 122 0
43 -50 -73 0
-50 57 -73 0
50 73 -122 0
-43 50 73 0
50 -57 73 0
-43 50 -57 -122 0
43 -50 57 122 0
-22 35 -124 0
35 -73 -124 0
-22 35 -73 0
22 -35 124 0
-35 73 124 0
22 -35 73 0
-35 -47 124 0
22 -35 -47 0
-35 -47 73 0
35 47 -124 0
-22 35 47 0
35 47 -73 0
-22 47 -73 -124 0
22 -47 73 124 0
29 -40 -126 0
29 -35 -126 0
29 -35 -40 0
-29 40 126 0
-29 35 126 0
-29 35 40 0
-29 -44 126 0
-29 40 -44 0
-29 35 -44 0
29 44 -126 0
29 -40 44 0
29 -35 44 0
-35 -40 44 -126 0
35 40 -44 126 0
23 -92 -125 0
23 -29 -125 0
23 -29 -92 0
-23 92 125 0
-23 29 125 0
-23 29 92 0
-23 -41 125 0
-23 -41 92 0
-23 29 -41 0
23 41 -125 0
23 41 -92 0
23 -29 41 0
-29 41 -92 -125 0
29 -41 92 125 0
-49 -93 0
-34 -93 0
34 49 93 0
34 49 -129 0
-34 -49 -129 0
34 -49 129 0
-34 49 129 0
93 -130 0
-96 -130 0
-93 96 130 0
-93 96 -131 0
93 -96 -131 0
93 96 131 0
-93 -96 131 0
130 -132 0
-112 -132 0
112 -130 132 0
112 -130 -133 0
-112 130 -133 0
112 130 133 0
-112 -130 133 0
132 -134 0
-128 -134 0
128 -132 134 0
128 -132 -135 0
-128 132 -135 0
128 132 135 0
-128 -132 135 0
134 -136 0
-71 -136 0
71 -134 136 0
71 -134 -137 0
-71 134 -137 0
71 134 137 0
-71 -134 137 0
136 -138 0
-62 -138 0
62 -136 138 0
62 -136 -139 0
-62 136 -139 0
62 136 139 0
-62 -136 139 0
138 -140 0
-54 -140 0
54 -138 140 0
54 -138 -141 0
-54 138 -141 0
54 138 141 0
-54 -138 141 0
140 -142 0
-50 -142 0
50 -140 142 0
50 -140 -143 0
-50 140 -143 0
50 140 143 0
-50 -140 143 0
142 -144 0
-47 -144 0
47 -142 144 0
47 -142 -145 0
-47 142 -145 0
47 142 145 0
-47 -142 145 0
-18 144 0
-18 -44 0
18 44 -144 0
-17 44 -144 0
-17 -44 144 0
17 44 144 0
17 -44 -144 0
-16 18 0
-16 -41 0
16 -18 41 0
-15 -18 41 0
-15 18 -41 0
15 18 41 0
15 -18 -41 0
-14 16 0
-14 -23 0
14 -16 23 0
-13 -16 23 0
-13 16 -23 0
13 16 23 0
13 -16 -23 0
-12 80 0
-12 49 0
12 -49 -80 0
-49 -80 0
49 80 0
11 -34 -82 0
11 -12 -82 0
11 -12 -34 0
-11 34 82 0
-11 12 82 0
-11 12 34 0
-11 82 0
-11 34 0
-11 12 0
12 34 82 0
10 -84 -96 0
10 -11 -84 0
10 -11 -96 0
-10 84 96 0
-10 11 84 0
-10 11 96 0
-10 84 0
-10 96 0
-10 11 0
11 84 96 0
9 -86 -112 0
9 -10 -86 0
9 -10 -112 0
-9 86 112 0
-9 10 86 0
-9 10 112 0
9 -86 0
9 -112 0
9 -10 0
-10 -86 -112 0
8 -88 -128 0
8 -9 -88 0
8 -9 -128 0
-8 88 128 0
-8 9 88 0
-8 9 128 0
8 -88 0
8 -128 0
8 -9 0
-9 -88 -128 0
7 -71 -90 0
7 -8 -90 0
7 -8 -71 0
-7 71 90 0
-7 8 90 0
-7 8 71 0
7 -90 0
7 -71 0
7 -8 0
-8 -71 -90 0
6 -62 -77 0
6 -7 -77 0
6 -7 -62 0
-6 62 77 0
-6 7 77 0
-6 7 62 0
6 -77 0
6 -62 0
6 -7 0
-7 -62 -77 0
5 -54 -69 0
5 -6 -69 0
5 -6 -54 0
-5 54 69 0
-5 6 69 0
-5 6 54 0
5 -69 0
5 -54 0
5 -6 0
-6 -54 -69 0
4 -50 -74 0
4 -5 -74 0
4 -5 -50 0
-4 50 74 0
-4 5 74 0
-4 5 50 0
4 -74 0
4 -50 0
4 -5 0
-5 -50 -74 0
-3 47 0
-3 4 0
3 -4 -47 0
4 -47 0
-4 47 0
-2 44 0
-2 3 0
2 -3 -44 0
3 -44 0
-3 44 0
-1 41 0
-1 2 0
1 -2 -41 0
2 -41 0
-2 41 0
-1 -23 0
1 -23 0
-1 23 0
